Instance name:    bar-n200-5
Authors:          PDPTW Solver
Date:             2025-11-21
Reference:        LNS with SA/RTR
Solution
Route 1 : 7 107 84 184 87 187 64 164 75 175 56 12 10 110 71 171 112 98 198 156 25 77 177 125 73 173 88 61 161 66 166 188
Route 2 : 49 149 44 144 11 80 180 111 89 78 189 72 9 109 172 8 178 108 55 100 200 51 38 138 53 151 153 37 137 155 2 102 62 162 16 69 169 116 60 160
Route 3 : 17 47 147 42 117 74 174 36 136 142 63 85 185 163 19 30 130 119 90 190 93 193 83 183 68 168 27 127 54 154 43 143 76 95 195 176 70 170 45 5 105 145 79 179
Route 4 : 22 122 41 141 33 50 92 192 150 3 103 40 140 4 104 97 197 133 23 123 21 58 158 31 131 15 115 1 101 81 52 152 39 139 121 181 32 132 99 67 167 26 126 199
Route 5 : 86 57 186 157 6 106 94 194 34 134 29 82 182 24 124 59 159 65 165 91 129 191 46 146 20 120 13 14 114 113 18 28 128 118 96 196 48 148 35 135
